163
1000
373
7
160
29
436
937
709
61
45
669
534
307
390
43
233
63
840
476
18
331
181
183
40
522
129
374
187
263
238
184
21
816
492
304
78
614
78
362
399
865
583
384
465
1
438
431
745
239
583
469
336
514
25
219
601
160
737
82
375
880
107
908
190
542
429
875
562
165
206
905
158
817
429
244
69
255
962
893
379
93
216
99
156
343
362
865
45
558
603
218
406
961
745
383
98
995
657
110
125
380
5
524
767
518
358
356
222
152
227
24
731
187
224
120
918
92
38
39
24
955
135
922
96
294
201
831
160
780
487
435
359
227
626
727
466
739
34
127
529
324
664
614
413
177
159
33
346
290
431
617
82
454
225
174
236
152
182
78
15
135
195
95
482
